CMD:
./solvers/bin/cadical --plain --no-reduce -t 1600 ./data/cnfs//beemskbn3f1/beemskbn3f1.81.cnf

c --- [ banner ] -------------------------------------------------------------
c 
c CaDiCaL SAT Solver
c Copyright (c) 2016-2024
c A. Biere, M. Fleury, N. Froleyks, K. Fazekas, F. Pollitt, T. Faller
c JKU Linz, University of Freiburg, TU Wien
c 
c Version 2.1.3 5296d3d2a9bf48c154ab2acb5e44625776d821bf
c g++ (Gentoo 12.3.1_p20230526 p2) 12.3.1 20230526 -Wall -Wextra -O3 -DNDEBUG
c Sat Aug 9 07:26:21 PDT 2025 Linux cedar2.int.cedar.computecanada.ca 5.14.0-362.24.2.el9_3.x86_64 x86_64
c 
c --- [ limit ] --------------------------------------------------------------
c 
c setting time limit to 1600 seconds real time (due to '-t 1600')
c 
c --- [ parsing input ] ------------------------------------------------------
c 
c reading DIMACS file from './data/cnfs//beemskbn3f1/beemskbn3f1.81.cnf'
c opening file to read './data/cnfs//beemskbn3f1/beemskbn3f1.81.cnf'
c found 'p cnf 4332036 12990252' header
c parsed 12990252 clauses in 2.09 seconds process time
c 
c --- [ options ] ------------------------------------------------------------
c 
c   --compact=false                (different from default 'true')
c   --decompose=false              (different from default 'true')
c   --deduplicate=false            (different from default 'true')
c   --elim=false                   (different from default 'true')
c   --probe=false                  (different from default 'true')
c   --reduce=false                 (different from default 'true')
c   --subsume=false                (different from default 'true')
c   --ternary=false                (different from default 'true')
c   --transred=false               (different from default 'true')
c   --vivify=false                 (different from default 'true')
c 
c --- [ solving ] ------------------------------------------------------------
c 
c time measured in process time since initialization
c 
c  seconds    reductions  redundant   irredundant
c          MB     restarts       trail          variables
c            level   conflicts       glue             remaining
c 
c *  2.09 1821  0 0   0    0    0  0% 0 10995522 1361999 31%
c {  2.39 1844  0 0   0    0    0  0% 0 10995522 1361999 31%
c i  3.04 1844 351 0  11  643  493 74% 2 10995522 1360349 31%
c i  3.04 1844 349 0  11  645  494 74% 2 10995522 1360341 31%
c i  3.04 1844 349 0  11  646  494 74% 2 10995522 1360322 31%
c i  3.04 1844 347 0  11  648  494 74% 2 10995522 1360291 31%
c i  3.04 1844 345 0  11  651  496 74% 2 10995522 1360286 31%
c }  3.85 1844 250 0  45 1167  806 75% 3 10995522 1360286 31%
c [  3.85 1844  0 0  45 1167  806  0% 0 10995522 1360286 31%
c O  4.64 1844 38 0  45 1168  807 99% 1 10995522 1360286 31%
c ]  7.17 1844 193 0  46 3168 2527 85% 9 10995522 1360286 31%
c {  7.17 1844 250 0  46 3168 2527 75% 3 10995522 1360286 31%
c F  7.18 1844 250 0  47 3169 2528 74% 3 10995522 1360286 31%
c #  8.47 1844 172 0 194 6341 3700 72% 4 10995522 1360286 31%
c i  8.51 1844 209 0 202 6495 3782 72% 4 10995522 1360162 31%
c i  8.54 1844 270 0 202 6657 3879 72% 4 10995522 1360161 31%
c i  8.55 1844 281 0 202 6680 3897 72% 4 10995522 1360155 31%
c i  8.60 1844 311 0 213 6799 3991 72% 4 10995522 1360150 31%
c i  8.60 1844 310 0 213 6801 3991 72% 4 10995522 1360132 31%
c i  8.61 1844 309 0 217 6812 4001 72% 4 10995522 1360131 31%
c 
c  seconds     reductions  redundant   irredundant
c          MB      restarts       trail          variables
c             level   conflicts       glue             remaining
c 
c i  8.61 1844 309 0 217 6813 4001 72% 4 10995522 1360130 31%
c i  8.61 1844 309 0 217 6814 4001 72% 4 10995522 1360002 31%
c i  8.61 1844 306 0 218 6837 4018 72% 4 10995522 1359991 31%
c i  8.63 1844 304 0 218 6851 4028 72% 4 10995522 1359174 31%
c }  8.98 1844 287 0 234 7269 4223 72% 4 10995522 1359164 31%
c [  8.98 1844 193 0 234 7269 4223 85% 9 10995522 1359164 31%
c i 10.46 1844 1132 0 235 9035 5828 87% 7 10995522 1358294 31%
c i 10.48 1844 1131 0 235 9037 5828 86% 7 10995522 1358285 31%
c i 10.48 1844 1130 0 235 9039 5829 86% 7 10995522 1358279 31%
c ] 10.49 1844 1130 0 235 9042 5830 86% 7 10995522 1358076 31%
c 0 10.49 1844 1130 0 235 9042 5830 86% 7 10995522 1358076 31%
c 
c --- [ result ] -------------------------------------------------------------
c 
s UNSATISFIABLE
c 
c --- [ run-time profiling ] -------------------------------------------------
c 
c process time taken by individual solving procedures
c (percentage relative to process time for solving)
c 
c         8.40  100.00% search
c         4.83   57.52% stable
c         3.26   38.84% unstable
c         2.09   24.86% parse
c         0.31    3.64% lucky
c         0.00    0.00% simplify
c   =================================
c         8.40   80.08% solve
c 
c last line shows process time for solving
c (percentage relative to total process time)
c 
c --- [ statistics ] ---------------------------------------------------------
c 
c chronological:              2608        28.84 %  of conflicts
c conflicts:                  9042      1076.68    per second
c decisions:                 60498      7203.82    per second
c fixed:                   2973960        68.65 %  of all variables
c learned:                    6256        69.19 %  per conflict
c learned_lits:             375150       100.00 %  learned literals
c minimized:                     0         0.00 %  learned literals
c shrunken:                  57940        15.44 %  learned literals
c minishrunken:              72477        19.32 %  learned literals
c otfs:                         75         0.83 %  of conflict
c propagations:           63824993         7.60 M  per second
c rephased:                      3      3014.00    interval
c restarts:                    235        38.48    interval
c stabilizing:                   2        41.74 %  of conflicts
c subsumed:                    403         0.00 %  of all clauses
c strengthened:                 75         0.00 %  of all clauses
c 
c seconds are measured in process time for solving
c 
c --- [ resources ] ----------------------------------------------------------
c 
c total process time since initialization:        10.49    seconds
c total real time since initialization:           10.59    seconds
c maximum resident set size of process:         1843.00    MB
c 
c --- [ shutting down ] ------------------------------------------------------
c 
c exit 20
